qbf_easy_train/easy_1995_SAT.qdimacs
p cnf 26 68
a 1 23 7 0
e 2 3 4 5 6 8 9 10 11 12 13 14 15 16 17 18 19 20 21 22 24 25 26 0
1 2 -3 0
-1 -2 -3 0
1 -2 3 0
-1 2 3 0
-3 -4 -5 0
3 4 -5 0
-3 4 5 0
3 -4 5 0
5 -6 -7 0
-5 6 -7 0
5 6 7 0
-5 -6 7 0
-8 -2 0
-8 -2 0
2 8 0
9 2 0
9 -2 0
-10 -9 0
-10 2 0
9 -2 10 0
11 -8 0
11 -10 0
8 10 -11 0
-7 -11 -12 0
7 11 -12 0
-7 11 12 0
7 -11 12 0
14 -13 0
14 -13 0
13 -14 0
-15 -14 0
-15 10 0
14 -10 15 0
17 -16 0
17 16 0
17 -18 -19 0
-17 18 -19 0
17 18 19 0
-17 -18 19 0
19 20 -21 0
-19 -20 -21 0
19 -20 21 0
-19 20 21 0
-15 21 -22 0
15 -21 -22 0
-15 -21 22 0
15 21 22 0
-23 -2 0
-23 17 0
2 -17 23 0
24 10 0
24 -23 0
-10 23 -24 0
22 -24 -25 0
-22 24 -25 0
22 24 25 0
-22 -24 25 0
12 -25 -26 0
-12 25 -26 0
12 25 26 0
-12 -25 26 0
-24 -17 -23 13 0
16 10 -22 0
10 -12 -20 21 15 -6 0
17 -9 -20 -24 -19 0
-12 23 -20 5 15 2 0
-12 -24 -2 -15 -19 16 0
26 0
