sat_easy_train/easy_1995_SAT.dimacs
p cnf 70 211
2 3 0
-2 3 0
-1 -3 -4 0
1 3 -4 0
-1 3 4 0
1 -3 4 0
-6 -4 0
-6 5 0
4 -5 6 0
10 -9 0
10 -9 0
9 -10 0
-11 8 0
-11 -10 0
-8 10 11 0
13 -2 0
13 -12 0
2 12 -13 0
-13 3 -14 0
13 -3 -14 0
-13 -3 14 0
13 3 14 0
-15 -11 0
-15 -14 0
11 14 15 0
16 15 0
16 -13 0
-15 13 -16 0
-7 16 -17 0
7 -16 -17 0
-7 -16 17 0
7 16 17 0
6 -17 -18 0
-6 17 -18 0
6 17 18 0
-6 -17 18 0
13 -3 -19 0
-13 3 -19 0
13 3 19 0
-13 -3 19 0
21 -15 0
21 -20 0
15 20 -21 0
5 21 -22 0
-5 -21 -22 0
5 -21 22 0
-5 21 22 0
-19 -22 -23 0
19 22 -23 0
-19 22 23 0
19 -22 23 0
-18 -23 -24 0
18 23 -24 0
-18 23 24 0
18 -23 24 0
1 -10 -25 0
-1 10 -25 0
1 10 25 0
-1 -10 25 0
-26 -20 0
-26 -25 0
20 25 26 0
-28 -27 0
-28 27 0
28 -29 -30 0
-28 29 -30 0
28 29 30 0
-28 -29 30 0
-31 30 0
-31 -13 0
-30 13 31 0
32 26 0
32 -31 0
-26 31 -32 0
-33 -24 0
-33 32 0
24 -32 33 0
34 14 0
34 -10 0
-14 10 -34 0
-35 -33 0
-35 34 0
33 -34 35 0
37 -36 0
37 12 0
36 -12 -37 0
37 -27 -38 0
-37 27 -38 0
37 27 38 0
-37 -27 38 0
-39 -29 0
-39 -38 0
29 38 39 0
-41 28 0
-41 40 0
-28 -40 41 0
-1 -9 -42 0
1 9 -42 0
-1 9 42 0
1 -9 42 0
-43 -42 0
-43 28 0
42 -28 43 0
-41 -43 -44 0
41 43 -44 0
-41 43 44 0
41 -43 44 0
39 -44 -45 0
-39 44 -45 0
39 44 45 0
-39 -44 45 0
29 14 -46 0
-29 -14 -46 0
29 -14 46 0
-29 14 46 0
48 20 0
48 -47 0
-20 47 -48 0
-36 48 -49 0
36 -48 -49 0
-36 -48 49 0
36 48 49 0
-50 49 0
-50 -47 0
-49 47 50 0
51 46 0
51 50 0
-46 -50 -51 0
45 -51 -52 0
-45 51 -52 0
45 51 52 0
-45 -51 52 0
2 -53 -54 0
-2 53 -54 0
2 53 54 0
-2 -53 54 0
-29 55 0
29 55 0
-55 -56 -57 0
55 56 -57 0
-55 56 57 0
55 -56 57 0
-54 -57 -58 0
54 57 -58 0
-54 57 58 0
54 -57 58 0
59 52 0
59 58 0
-52 -58 -59 0
-60 -35 0
-60 -59 0
35 59 60 0
61 -36 0
61 12 0
36 -12 -61 0
-62 -49 0
-62 11 0
49 -11 62 0
61 62 -63 0
-61 -62 -63 0
61 -62 63 0
-61 62 63 0
-55 -9 -64 0
55 9 -64 0
-55 9 64 0
55 -9 64 0
-66 -65 0
-66 -40 0
65 40 66 0
40 66 -67 0
-40 -66 -67 0
40 -66 67 0
-40 66 67 0
-68 64 0
-68 67 0
-64 -67 68 0
-69 63 0
-69 68 0
-63 -68 69 0
60 69 -70 0
-60 -69 -70 0
60 -69 70 0
-60 69 70 0
-27 50 49 0
-23 -54 25 0
-16 59 -42 -52 0
-43 23 -29 26 0
37 -55 29 -12 59 66 0
67 61 0
35 -11 -50 1 -44 0
-32 -33 52 -49 43 38 0
40 -15 -32 -33 0
26 -17 -20 0
-7 -16 -63 0
6 4 23 10 0
-49 -52 -54 -27 0
18 -1 -38 43 0
10 -33 52 0
-7 -12 46 0
10 31 54 2 0
-37 -39 21 0
-41 9 -25 24 45 0
36 -46 18 0
-14 -34 -5 0
17 -27 -16 55 0
-64 22 49 -65 0
7 -69 -30 0
-69 -18 0
-56 47 -23 -57 0
42 -9 0
70 0
